#######################################
### Exact MIP solver for the HHCRSP ###
#######################################
-- Instance file: new-instances/HHCRSP_400_80_29_1.0_R_RC.txt
-- Max threads: 4
-- Time limit: 999999 seconds
-- Use initial solution: No
Trivial flow violations prevented generating 2750430 variables.
Version identifier: 20.1.0.0 | 2020-11-10 | 9bedb6d68
CPXPARAM_Threads                                 4
CPXPARAM_Emphasis_Memory                         1
CPXPARAM_TimeLimit                               999999
Tried aggregator 1 time.
Presolve has eliminated 80430 rows and 17303 columns...
LP Presolve eliminated 80430 rows and 17303 columns.
Reduced LP has 2829340 rows, 2683030 columns, and 79244673 nonzeros.
Presolve time = 84.44 sec. (16851.32 ticks)
Compression time = 19.97 sec. (5.35 ticks)
Compression reduced 1148.13 MB A matrix to 345.87 MB
Symmetry aggregator did 4774511 additional substitutions.
Initializing dual steep norms . . .
Elapsed time = 105.74 sec. (17533.65 ticks, 1 iterations)

Iteration log . . .
Iteration:     1   Dual objective     =            -0.000000
Iteration:  1806   Dual objective     =           461.000000

Dual crossover.
  Dual:  Fixing 3239 variables.
     3238 DMoves:  Infeasibility  6.14464035e-12  Objective  4.64000000e+02
        0 DMoves:  Infeasibility  3.13580643e-12  Objective  4.64000000e+02
  Dual:  Pushed 62, exchanged 3177.
  Primal:  Fixing 1956 variables.
     1955 PMoves:  Infeasibility  5.55111512e-17  Objective  4.64000000e+02
        0 PMoves:  Infeasibility  5.55111512e-17  Objective  4.64000000e+02
  Primal:  Pushed 1778, exchanged 178.

Solution status from MIP model:
-- Processing time: 145.122 sec.
-- Memory used: 1836.51 MB
-- Best bound: inf
-- Obj value: 464
-- Gap: inf%
-- Total distance: 1392
-- Total tardiness: 0
-- Largest tardiness: 0
